solution status: optimal solution found
objective value:                                    7
shell_j_$_87                                        1 	(obj:0)
shell_j_$_90                                        1 	(obj:0)
shell_i_$_140                                       1 	(obj:0)
shell_j_$_140                                       1 	(obj:0)
shell_j_$_92                                        1 	(obj:0)
shell_i_$_161                                       1 	(obj:0)
shell_j_$_161                                       1 	(obj:0)
shell_j_$_158                                       1 	(obj:0)
shell_j_$_88                                        1 	(obj:0)
shell_j_$_159                                       1 	(obj:0)
shell_i_$_144                                       1 	(obj:0)
shell_j_$_85                                        1 	(obj:0)
shell_j_$_89                                        1 	(obj:0)
shell_j_$_84                                        1 	(obj:0)
shell_i_$_154                                       1 	(obj:0)
shell_j_$_134                                       1 	(obj:0)
shell_j_$_86                                        1 	(obj:0)
shell_j_$_135                                       1 	(obj:0)
shell_i_$_148                                       1 	(obj:0)
shell_i_$_136                                       1 	(obj:0)
shell_i_$_163                                       1 	(obj:0)
shell_i_$_149                                       1 	(obj:0)
shell_i_$_138                                       1 	(obj:0)
shell_j_$_138                                       1 	(obj:0)
shell_i_$_160                                       1 	(obj:0)
shell_i_$_145                                       1 	(obj:0)
shell_i_$_133                                       1 	(obj:0)
shell_i_$_155                                       1 	(obj:0)
shell_i_$_156                                       1 	(obj:0)
shell_i_$_157                                       1 	(obj:0)
shell_j_$_157                                       1 	(obj:0)
shell_j_$_139                                       1 	(obj:0)
shell_i_$_147                                       1 	(obj:0)
shell_i_$_93                                        1 	(obj:0)
shell_j_$_93                                        1 	(obj:0)
shell_i_$_150                                       1 	(obj:0)
shell_i_$_137                                       1 	(obj:0)
shell_i_$_151                                       1 	(obj:0)
shell_i_$_91                                        1 	(obj:0)
shell_j_$_91                                        1 	(obj:0)
shell_i_$_146                                       1 	(obj:0)
shell_i_$_152                                       1 	(obj:0)
shell_i_$_162                                       1 	(obj:0)
shell_j_$_162                                       1 	(obj:0)
shell_i_$_153                                       1 	(obj:0)
$_135_y                                            10 	(obj:0)
$_135_z                                            20 	(obj:0)
$_88_x                                             -4 	(obj:0)
$_88_y                                             10 	(obj:0)
$_148_x                                           -10 	(obj:0)
$_148_y                                             4 	(obj:0)
$_148_z                                            16 	(obj:0)
$_88_z                                             19 	(obj:0)
$_140_z                                            25 	(obj:0)
$_136_x                                           -10 	(obj:0)
$_136_y                                             6 	(obj:0)
$_136_z                                            24 	(obj:0)
$_87_y                                             10 	(obj:0)
$_159_x                                            -9 	(obj:0)
$_163_x                                           -10 	(obj:0)
$_163_y                                             6 	(obj:0)
$_163_z                                            21 	(obj:0)
$_159_y                                            10 	(obj:0)
$_159_z                                            23 	(obj:0)
$_149_x                                           -10 	(obj:0)
$_149_y                                             5 	(obj:0)
$_149_z                                            20 	(obj:0)
$_90_x                                             -6 	(obj:0)
$_92_x                                             -6 	(obj:0)
$_138_x                                           -10 	(obj:0)
$_138_y                                            10 	(obj:0)
$_138_z                                            24 	(obj:0)
$_144_x                                           -10 	(obj:0)
$_144_y                                             7 	(obj:0)
$_160_x                                           -10 	(obj:0)
$_160_y                                             6 	(obj:0)
$_160_z                                            19 	(obj:0)
$_144_z                                            23 	(obj:0)
$_92_y                                             10 	(obj:0)
$_145_x                                           -10 	(obj:0)
$_145_y                                             3 	(obj:0)
$_145_z                                            23 	(obj:0)
$_92_z                                             24 	(obj:0)
$_85_x                                             -1 	(obj:0)
$_133_x                                           -10 	(obj:0)
$_133_y                                             5 	(obj:0)
$_133_z                                            19 	(obj:0)
$_85_y                                             10 	(obj:0)
$_85_z                                             23 	(obj:0)
$_155_x                                           -10 	(obj:0)
$_155_y                                             5 	(obj:0)
$_155_z                                            24 	(obj:0)
$_90_y                                             10 	(obj:0)
$_90_z                                             25 	(obj:0)
$_156_x                                           -10 	(obj:0)
$_156_y                                             9 	(obj:0)
$_156_z                                            24 	(obj:0)
$_89_x                                             -2 	(obj:0)
$_89_y                                             10 	(obj:0)
$_157_x                                           -10 	(obj:0)
$_157_y                                            10 	(obj:0)
$_157_z                                            22 	(obj:0)
$_89_z                                             23 	(obj:0)
$_161_x                                           -10 	(obj:0)
$_139_x                                            -4 	(obj:0)
$_139_y                                            10 	(obj:0)
$_139_z                                            25 	(obj:0)
$_161_y                                            10 	(obj:0)
$_84_x                                             -5 	(obj:0)
$_147_x                                           -10 	(obj:0)
$_147_y                                             8 	(obj:0)
$_147_z                                            16 	(obj:0)
$_84_y                                             10 	(obj:0)
$_84_z                                             25 	(obj:0)
$_93_x                                            -10 	(obj:0)
$_93_y                                             10 	(obj:0)
$_93_z                                             20 	(obj:0)
$_161_z                                            23 	(obj:0)
$_87_z                                             23 	(obj:0)
$_150_x                                           -10 	(obj:0)
$_150_y                                             9 	(obj:0)
$_150_z                                            16 	(obj:0)
$_154_x                                           -10 	(obj:0)
$_154_y                                             1 	(obj:0)
$_137_x                                           -10 	(obj:0)
$_137_y                                             6 	(obj:0)
$_137_z                                            20 	(obj:0)
$_154_z                                            24 	(obj:0)
$_151_x                                           -10 	(obj:0)
$_151_y                                             5 	(obj:0)
$_151_z                                            17 	(obj:0)
$_158_x                                            -6 	(obj:0)
$_134_x                                            -9 	(obj:0)
$_91_x                                            -10 	(obj:0)
$_91_y                                             10 	(obj:0)
$_91_z                                             21 	(obj:0)
$_134_y                                            10 	(obj:0)
$_134_z                                            24 	(obj:0)
$_146_x                                           -10 	(obj:0)
$_146_y                                             4 	(obj:0)
$_146_z                                            20 	(obj:0)
$_158_y                                            10 	(obj:0)
$_158_z                                            22 	(obj:0)
$_152_x                                           -10 	(obj:0)
$_152_y                                             9 	(obj:0)
$_152_z                                            15 	(obj:0)
$_86_y                                             10 	(obj:0)
$_162_x                                           -10 	(obj:0)
$_162_y                                            10 	(obj:0)
$_162_z                                            19 	(obj:0)
$_86_z                                             19 	(obj:0)
$_140_x                                           -10 	(obj:0)
$_153_x                                           -10 	(obj:0)
$_153_y                                             8 	(obj:0)
$_153_z                                            15 	(obj:0)
$_140_y                                            10 	(obj:0)
$_135_x                                            -6 	(obj:0)
x217                                                1 	(obj:1)
x259                                                1 	(obj:1)
x267                                                1 	(obj:1)
x277                                                2 	(obj:1)
x303                                                1 	(obj:1)
x304                                                1 	(obj:1)
